c description: Random 3-CNF over 15 variables and 15 clauses
c generator: CNFgen (0.9.0)
c copyright: (C) 2012-2020 Massimo Lauria <massimo.lauria@uniroma1.it>
c url: https://massimolauria.net/cnfgen
c
p cnf 15 15
1 -11 15 0
1 5 10 0
1 7 10 0
1 4 -10 0
-3 13 14 0
-6 9 12 0
-5 7 -11 0
1 8 11 0
-2 9 11 0
3 12 15 0
8 -12 -13 0
10 -12 14 0
3 -8 9 0
1 -13 -14 0
-1 -13 15 0